50
    1   281   281
    2   242   242
    3   442   442
    4   442   442
    5   356   356
    6   468   468
    7   425   425
    8   168   168
    9   214   214
   10   377   377
   11   263   263
   12   357   357
   13    75    75
   14   217   217
   15    41    41
   16   419   419
   17   319   319
   18   194   194
   19   312   312
   20   134   134
   21   325   325
   22   487   487
   23   237   237
   24   127   127
   25   310   310
   26   299   299
   27   386   386
   28   430   430
   29   306   306
   30   359   359
   31   346   346
   32   500   500
   33   207   207
   34    30    30
   35   118   118
   36   238   238
   37   179   179
   38   386   386
   39   208   208
   40   169   169
   41    51    51
   42   253   253
   43   453   453
   44    59    59
   45   238   238
   46   140   140
   47   500   500
   48    96    96
   49   182   182
   50    57    57
2237
